instances/knapsack/discrete/knapsack_90_19.lp
\ Model knapsack_90_19
\ LP format - for model browsing. Use MPS format to capture full model detail.
\ Signature: 0xc29ff4c0dcb79651
Minimize
  - 6 x[0] - 23 x[1] - 8 x[2] - 80 x[3] - 46 x[4] - 21 x[5] - 78 x[6]
   - 4 x[7] - 43 x[8] - 67 x[9] - 71 x[10] - 51 x[11] - 87 x[12] - 38 x[13]
   - 19 x[14] - 4 x[15] - 14 x[16] - 82 x[17] - 83 x[18] - 38 x[19]
   - 82 x[20] - 15 x[21] - 72 x[22] - 16 x[23] - x[24] - 51 x[25]
   - 96 x[26] - 100 x[27] - 10 x[28] - 5 x[29] - 5 x[30] - 84 x[31]
   - 40 x[32] - 83 x[33] - 88 x[34] - 97 x[35] - 77 x[36] - 3 x[37]
   - 95 x[38] - 68 x[39] - 8 x[40] - 22 x[41] - 74 x[42] - 31 x[43]
   - 39 x[44] - 99 x[45] - 29 x[46] - 5 x[47] - 9 x[48] - 50 x[49]
   - 67 x[50] - 19 x[51] - 43 x[52] - 69 x[53] - 36 x[54] - 62 x[55]
   - 63 x[56] - 40 x[57] - 64 x[58] - 51 x[59] - 84 x[60] - 70 x[61]
   - 14 x[62] - 46 x[63] - 75 x[64] - 89 x[65] - 65 x[66] - 86 x[67]
   - 97 x[68] - 78 x[69] - 49 x[70] - 75 x[71] - 33 x[72] - 90 x[73]
   - 11 x[74] - 34 x[75] - 82 x[76] - 37 x[77] - 64 x[78] - 92 x[79]
   - 35 x[80] - 54 x[81] - 2 x[82] - 78 x[83] - 25 x[84] - 49 x[85]
   - 30 x[86] - 83 x[87] - 24 x[88] - 19 x[89]
Subject To
 primal_upper: 48 x[0] + 8 x[1] + 22 x[2] + 35 x[3] + 60 x[4] + 90 x[5]
   + 57 x[6] + 92 x[7] + 97 x[8] + 94 x[9] + 28 x[10] + 3 x[11] + 40 x[12]
   + 60 x[13] + 5 x[14] + 69 x[15] + 57 x[16] + 24 x[17] + 41 x[18]
   + 70 x[19] + 45 x[20] + 100 x[21] + 4 x[22] + 31 x[23] + 81 x[24]
   + 32 x[25] + 66 x[26] + 44 x[27] + 86 x[28] + 55 x[29] + 82 x[30]
   + 56 x[31] + 12 x[32] + 29 x[33] + 24 x[34] + 73 x[35] + 64 x[36]
   + 73 x[37] + 4 x[38] + 55 x[39] + 11 x[40] + 10 x[41] + 2 x[42]
   + 34 x[43] + 7 x[44] + 59 x[45] + 82 x[46] + 18 x[47] + 27 x[48]
   + 16 x[49] + 3 x[50] + 68 x[51] + 21 x[52] + 20 x[53] + 17 x[54]
   + 48 x[55] + 57 x[56] + 39 x[57] + 68 x[58] + 70 x[59] + 45 x[60]
   + 15 x[61] + 8 x[62] + 3 x[63] + 12 x[64] + 64 x[65] + 89 x[66]
   + 91 x[67] + 84 x[68] + 90 x[69] + 46 x[70] + 50 x[71] + 78 x[72]
   + 67 x[73] + 32 x[74] + 61 x[75] + 3 x[76] + 75 x[77] + 17 x[78]
   + 15 x[79] + 66 x[80] + 10 x[81] + 95 x[82] + 2 x[83] + 98 x[84]
   + 70 x[85] + 36 x[86] + 88 x[87] + 54 x[88] + 95 x[89] + 4.8 r[0]
   + 0.8 r[1] + 2.2 r[2] + 3.5 r[3] + 6 r[4] + 9 r[5] + 5.7 r[6] + 9.2 r[7]
   + 9.7 r[8] + 9.4 r[9] + 2.8 r[10] + 0.3 r[11] + 4 r[12] + 6 r[13]
   + 0.5 r[14] + 6.9 r[15] + 5.7 r[16] + 2.4 r[17] + 4.1 r[18] + 7 r[19]
   + 4.5 r[20] + 10 r[21] + 0.4 r[22] + 3.1 r[23] + 8.1 r[24] + 3.2 r[25]
   + 6.6 r[26] + 4.4 r[27] + 8.6 r[28] + 5.5 r[29] + 8.2 r[30] + 5.6 r[31]
   + 1.2 r[32] + 2.9 r[33] + 2.4 r[34] + 7.3 r[35] + 6.4 r[36] + 7.3 r[37]
   + 0.4 r[38] + 5.5 r[39] + 1.1 r[40] + r[41] + 0.2 r[42] + 3.4 r[43]
   + 0.7 r[44] + 5.9 r[45] + 8.2 r[46] + 1.8 r[47] + 2.7 r[48] + 1.6 r[49]
   + 0.3 r[50] + 6.8 r[51] + 2.1 r[52] + 2 r[53] + 1.7 r[54] + 4.8 r[55]
   + 5.7 r[56] + 3.9 r[57] + 6.8 r[58] + 7 r[59] + 4.5 r[60] + 1.5 r[61]
   + 0.8 r[62] + 0.3 r[63] + 1.2 r[64] + 6.4 r[65] + 8.9 r[66] + 9.1 r[67]
   + 8.4 r[68] + 9 r[69] + 4.6 r[70] + 5 r[71] + 7.8 r[72] + 6.7 r[73]
   + 3.2 r[74] + 6.1 r[75] + 0.3 r[76] + 7.5 r[77] + 1.7 r[78] + 1.5 r[79]
   + 6.6 r[80] + r[81] + 9.5 r[82] + 0.2 r[83] + 9.8 r[84] + 7 r[85]
   + 3.6 r[86] + 8.8 r[87] + 5.4 r[88] + 9.5 r[89] <= 404
 primal_lower: 2.359552002433944 x[0] + 0.2930309604397616 x[1]
   + 3.834065213710152 x[2] + 3.008042972973874 x[3]
   + 3.26216062221851 x[4] + 1.75900166152188 x[5] + 2.910955481896031 x[6]
   + 0.4124584379159503 x[7] + 3.591265160554728 x[8]
   + 1.24953504818659 x[9] + 1.690412862328807 x[10]
   + 4.024090420749108 x[11] + 0.2423356169752911 x[12]
   + 1.435308707312539 x[13] + 1.730226043978141 x[14]
   + 3.470435539559495 x[15] + 4.435380296823206 x[16]
   + 1.978083884847945 x[17] + 0.9503074841989159 x[18]
   + 3.528393090277801 x[19] + 1.520907676909554 x[20]
   + 2.186683466387743 x[21] + 1.16778733693127 x[22]
   + 1.220642460488288 x[23] + 3.073427294275614 x[24]
   + 4.173742763821851 x[25] + 1.159291754183255 x[26]
   + 3.203953779814006 x[27] + 3.346612832863629 x[28]
   + 2.224432211081721 x[29] + 2.953330514901175 x[30]
   + 0.6156624197846395 x[31] + 4.563591135901175 x[32]
   + 1.958541734971992 x[33] + 1.883051466718698 x[34]
   + 1.514977233309452 x[35] + 2.908161547020706 x[36]
   + 3.600022106667059 x[37] + 1.135507374135892 x[38]
   + 0.9538924893058977 x[39] + 4.316979862371989 x[40]
   + 1.892570691784564 x[41] + 1.458929175047628 x[42]
   + 2.58956299244413 x[43] + 0.4688454192409072 x[44]
   + 1.524984471807117 x[45] + 1.348051699457664 x[46]
   + 1.513039578145324 x[47] + 1.308022184891659 x[48]
   + 4.310162722416398 x[49] + 2.783958929904298 x[50]
   + 4.392744658268581 x[51] + 2.131527996269834 x[52]
   + 0.1850486185033845 x[53] + 0.3940216478036646 x[54]
   + 0.8243745576346047 x[55] + 0.6448196679686485 x[56]
   + 3.843849264620942 x[57] + 0.2163280108348191 x[58]
   + 3.594479450183949 x[59] + 4.227352002530982 x[60]
   + 4.087020922430903 x[61] + 3.502681094510101 x[62]
   + 1.917258382043703 x[63] + 4.497205547121585 x[64]
   + 0.5981751296870369 x[65] + 3.014158383692583 x[66]
   + 0.602351011802752 x[67] + 3.314775195313996 x[68]
   + 3.233333485100037 x[69] + 2.478829344777982 x[70]
   + 4.4576280374219269e-04 x[71] + 1.731008674390388 x[72]
   + 0.0605171005435247 x[73] + 1.43445132243267 x[74]
   + 2.143647464412921 x[75] + 1.209602592528668 x[76]
   + 4.098154338568819 x[77] + 0.6331277696226125 x[78]
   + 0.5114399710220889 x[79] + 1.946419512013851 x[80]
   + 1.256165444060297 x[81] + 1.354011655025691 x[82]
   + 4.207103427833049 x[83] + 1.503813656047899 x[84]
   + 2.879545698580265 x[85] + 3.427630943459501 x[86]
   + 3.051102566225143 x[87] + 2.926086218127133 x[88]
   + 0.0344864166057006 x[89] + 13 u[0] + 73 u[1] + 83 u[2] + 24 u[3]
   + 5 u[4] + 3 u[5] + 54 u[6] + 85 u[7] + 86 u[8] + 39 u[9] + 69 u[10]
   + 56 u[11] + 21 u[12] + 21 u[13] + 2 u[14] + 94 u[15] + 86 u[16]
   + 85 u[17] + 14 u[18] + 71 u[19] + 98 u[20] + 57 u[21] + 45 u[22]
   + 56 u[23] + 2 u[24] + 37 u[25] + 55 u[26] + 69 u[27] + 15 u[28]
   + 44 u[29] + 3 u[30] + 61 u[31] + 81 u[32] + 26 u[33] + 9 u[34]
   + 54 u[35] + 65 u[36] + 50 u[37] + 29 u[38] + 4 u[39] + 20 u[40]
   + 67 u[41] + 95 u[42] + 23 u[43] + 20 u[44] + 80 u[45] + 11 u[46]
   + 15 u[47] + 68 u[48] + 93 u[49] + 56 u[50] + 17 u[51] + 90 u[52]
   + 25 u[53] + 46 u[54] + 29 u[55] + 82 u[56] + 36 u[57] + 5 u[58]
   + 15 u[59] + 74 u[60] + 24 u[61] + 53 u[62] + 12 u[63] + 81 u[64]
   + 93 u[65] + 78 u[66] + 28 u[67] + 81 u[68] + 87 u[69] + 23 u[70]
   + 3 u[71] + 43 u[72] + 32 u[73] + 25 u[74] + 90 u[75] + 72 u[76]
   + 44 u[77] + 10 u[78] + 8 u[79] + 99 u[80] + 67 u[81] + 52 u[82]
   + 59 u[83] + 91 u[84] + 71 u[85] + u[86] + 33 u[87] + 75 u[88]
   + 76 u[89] <= 90500
 mccormick1[0]: - u[0] + r[0] <= 0
 mccormick1[1]: - u[1] + r[1] <= 0
 mccormick1[2]: - u[2] + r[2] <= 0
 mccormick1[3]: - u[3] + r[3] <= 0
 mccormick1[4]: - u[4] + r[4] <= 0
 mccormick1[5]: - u[5] + r[5] <= 0
 mccormick1[6]: - u[6] + r[6] <= 0
 mccormick1[7]: - u[7] + r[7] <= 0
 mccormick1[8]: - u[8] + r[8] <= 0
 mccormick1[9]: - u[9] + r[9] <= 0
 mccormick1[10]: - u[10] + r[10] <= 0
 mccormick1[11]: - u[11] + r[11] <= 0
 mccormick1[12]: - u[12] + r[12] <= 0
 mccormick1[13]: - u[13] + r[13] <= 0
 mccormick1[14]: - u[14] + r[14] <= 0
 mccormick1[15]: - u[15] + r[15] <= 0
 mccormick1[16]: - u[16] + r[16] <= 0
 mccormick1[17]: - u[17] + r[17] <= 0
 mccormick1[18]: - u[18] + r[18] <= 0
 mccormick1[19]: - u[19] + r[19] <= 0
 mccormick1[20]: - u[20] + r[20] <= 0
 mccormick1[21]: - u[21] + r[21] <= 0
 mccormick1[22]: - u[22] + r[22] <= 0
 mccormick1[23]: - u[23] + r[23] <= 0
 mccormick1[24]: - u[24] + r[24] <= 0
 mccormick1[25]: - u[25] + r[25] <= 0
 mccormick1[26]: - u[26] + r[26] <= 0
 mccormick1[27]: - u[27] + r[27] <= 0
 mccormick1[28]: - u[28] + r[28] <= 0
 mccormick1[29]: - u[29] + r[29] <= 0
 mccormick1[30]: - u[30] + r[30] <= 0
 mccormick1[31]: - u[31] + r[31] <= 0
 mccormick1[32]: - u[32] + r[32] <= 0
 mccormick1[33]: - u[33] + r[33] <= 0
 mccormick1[34]: - u[34] + r[34] <= 0
 mccormick1[35]: - u[35] + r[35] <= 0
 mccormick1[36]: - u[36] + r[36] <= 0
 mccormick1[37]: - u[37] + r[37] <= 0
 mccormick1[38]: - u[38] + r[38] <= 0
 mccormick1[39]: - u[39] + r[39] <= 0
 mccormick1[40]: - u[40] + r[40] <= 0
 mccormick1[41]: - u[41] + r[41] <= 0
 mccormick1[42]: - u[42] + r[42] <= 0
 mccormick1[43]: - u[43] + r[43] <= 0
 mccormick1[44]: - u[44] + r[44] <= 0
 mccormick1[45]: - u[45] + r[45] <= 0
 mccormick1[46]: - u[46] + r[46] <= 0
 mccormick1[47]: - u[47] + r[47] <= 0
 mccormick1[48]: - u[48] + r[48] <= 0
 mccormick1[49]: - u[49] + r[49] <= 0
 mccormick1[50]: - u[50] + r[50] <= 0
 mccormick1[51]: - u[51] + r[51] <= 0
 mccormick1[52]: - u[52] + r[52] <= 0
 mccormick1[53]: - u[53] + r[53] <= 0
 mccormick1[54]: - u[54] + r[54] <= 0
 mccormick1[55]: - u[55] + r[55] <= 0
 mccormick1[56]: - u[56] + r[56] <= 0
 mccormick1[57]: - u[57] + r[57] <= 0
 mccormick1[58]: - u[58] + r[58] <= 0
 mccormick1[59]: - u[59] + r[59] <= 0
 mccormick1[60]: - u[60] + r[60] <= 0
 mccormick1[61]: - u[61] + r[61] <= 0
 mccormick1[62]: - u[62] + r[62] <= 0
 mccormick1[63]: - u[63] + r[63] <= 0
 mccormick1[64]: - u[64] + r[64] <= 0
 mccormick1[65]: - u[65] + r[65] <= 0
 mccormick1[66]: - u[66] + r[66] <= 0
 mccormick1[67]: - u[67] + r[67] <= 0
 mccormick1[68]: - u[68] + r[68] <= 0
 mccormick1[69]: - u[69] + r[69] <= 0
 mccormick1[70]: - u[70] + r[70] <= 0
 mccormick1[71]: - u[71] + r[71] <= 0
 mccormick1[72]: - u[72] + r[72] <= 0
 mccormick1[73]: - u[73] + r[73] <= 0
 mccormick1[74]: - u[74] + r[74] <= 0
 mccormick1[75]: - u[75] + r[75] <= 0
 mccormick1[76]: - u[76] + r[76] <= 0
 mccormick1[77]: - u[77] + r[77] <= 0
 mccormick1[78]: - u[78] + r[78] <= 0
 mccormick1[79]: - u[79] + r[79] <= 0
 mccormick1[80]: - u[80] + r[80] <= 0
 mccormick1[81]: - u[81] + r[81] <= 0
 mccormick1[82]: - u[82] + r[82] <= 0
 mccormick1[83]: - u[83] + r[83] <= 0
 mccormick1[84]: - u[84] + r[84] <= 0
 mccormick1[85]: - u[85] + r[85] <= 0
 mccormick1[86]: - u[86] + r[86] <= 0
 mccormick1[87]: - u[87] + r[87] <= 0
 mccormick1[88]: - u[88] + r[88] <= 0
 mccormick1[89]: - u[89] + r[89] <= 0
 mccormick2[0]: - x[0] + r[0] <= 0
 mccormick2[1]: - x[1] + r[1] <= 0
 mccormick2[2]: - x[2] + r[2] <= 0
 mccormick2[3]: - x[3] + r[3] <= 0
 mccormick2[4]: - x[4] + r[4] <= 0
 mccormick2[5]: - x[5] + r[5] <= 0
 mccormick2[6]: - x[6] + r[6] <= 0
 mccormick2[7]: - x[7] + r[7] <= 0
 mccormick2[8]: - x[8] + r[8] <= 0
 mccormick2[9]: - x[9] + r[9] <= 0
 mccormick2[10]: - x[10] + r[10] <= 0
 mccormick2[11]: - x[11] + r[11] <= 0
 mccormick2[12]: - x[12] + r[12] <= 0
 mccormick2[13]: - x[13] + r[13] <= 0
 mccormick2[14]: - x[14] + r[14] <= 0
 mccormick2[15]: - x[15] + r[15] <= 0
 mccormick2[16]: - x[16] + r[16] <= 0
 mccormick2[17]: - x[17] + r[17] <= 0
 mccormick2[18]: - x[18] + r[18] <= 0
 mccormick2[19]: - x[19] + r[19] <= 0
 mccormick2[20]: - x[20] + r[20] <= 0
 mccormick2[21]: - x[21] + r[21] <= 0
 mccormick2[22]: - x[22] + r[22] <= 0
 mccormick2[23]: - x[23] + r[23] <= 0
 mccormick2[24]: - x[24] + r[24] <= 0
 mccormick2[25]: - x[25] + r[25] <= 0
 mccormick2[26]: - x[26] + r[26] <= 0
 mccormick2[27]: - x[27] + r[27] <= 0
 mccormick2[28]: - x[28] + r[28] <= 0
 mccormick2[29]: - x[29] + r[29] <= 0
 mccormick2[30]: - x[30] + r[30] <= 0
 mccormick2[31]: - x[31] + r[31] <= 0
 mccormick2[32]: - x[32] + r[32] <= 0
 mccormick2[33]: - x[33] + r[33] <= 0
 mccormick2[34]: - x[34] + r[34] <= 0
 mccormick2[35]: - x[35] + r[35] <= 0
 mccormick2[36]: - x[36] + r[36] <= 0
 mccormick2[37]: - x[37] + r[37] <= 0
 mccormick2[38]: - x[38] + r[38] <= 0
 mccormick2[39]: - x[39] + r[39] <= 0
 mccormick2[40]: - x[40] + r[40] <= 0
 mccormick2[41]: - x[41] + r[41] <= 0
 mccormick2[42]: - x[42] + r[42] <= 0
 mccormick2[43]: - x[43] + r[43] <= 0
 mccormick2[44]: - x[44] + r[44] <= 0
 mccormick2[45]: - x[45] + r[45] <= 0
 mccormick2[46]: - x[46] + r[46] <= 0
 mccormick2[47]: - x[47] + r[47] <= 0
 mccormick2[48]: - x[48] + r[48] <= 0
 mccormick2[49]: - x[49] + r[49] <= 0
 mccormick2[50]: - x[50] + r[50] <= 0
 mccormick2[51]: - x[51] + r[51] <= 0
 mccormick2[52]: - x[52] + r[52] <= 0
 mccormick2[53]: - x[53] + r[53] <= 0
 mccormick2[54]: - x[54] + r[54] <= 0
 mccormick2[55]: - x[55] + r[55] <= 0
 mccormick2[56]: - x[56] + r[56] <= 0
 mccormick2[57]: - x[57] + r[57] <= 0
 mccormick2[58]: - x[58] + r[58] <= 0
 mccormick2[59]: - x[59] + r[59] <= 0
 mccormick2[60]: - x[60] + r[60] <= 0
 mccormick2[61]: - x[61] + r[61] <= 0
 mccormick2[62]: - x[62] + r[62] <= 0
 mccormick2[63]: - x[63] + r[63] <= 0
 mccormick2[64]: - x[64] + r[64] <= 0
 mccormick2[65]: - x[65] + r[65] <= 0
 mccormick2[66]: - x[66] + r[66] <= 0
 mccormick2[67]: - x[67] + r[67] <= 0
 mccormick2[68]: - x[68] + r[68] <= 0
 mccormick2[69]: - x[69] + r[69] <= 0
 mccormick2[70]: - x[70] + r[70] <= 0
 mccormick2[71]: - x[71] + r[71] <= 0
 mccormick2[72]: - x[72] + r[72] <= 0
 mccormick2[73]: - x[73] + r[73] <= 0
 mccormick2[74]: - x[74] + r[74] <= 0
 mccormick2[75]: - x[75] + r[75] <= 0
 mccormick2[76]: - x[76] + r[76] <= 0
 mccormick2[77]: - x[77] + r[77] <= 0
 mccormick2[78]: - x[78] + r[78] <= 0
 mccormick2[79]: - x[79] + r[79] <= 0
 mccormick2[80]: - x[80] + r[80] <= 0
 mccormick2[81]: - x[81] + r[81] <= 0
 mccormick2[82]: - x[82] + r[82] <= 0
 mccormick2[83]: - x[83] + r[83] <= 0
 mccormick2[84]: - x[84] + r[84] <= 0
 mccormick2[85]: - x[85] + r[85] <= 0
 mccormick2[86]: - x[86] + r[86] <= 0
 mccormick2[87]: - x[87] + r[87] <= 0
 mccormick2[88]: - x[88] + r[88] <= 0
 mccormick2[89]: - x[89] + r[89] <= 0
 mccormick3[0]: x[0] + u[0] - r[0] <= 1
 mccormick3[1]: x[1] + u[1] - r[1] <= 1
 mccormick3[2]: x[2] + u[2] - r[2] <= 1
 mccormick3[3]: x[3] + u[3] - r[3] <= 1
 mccormick3[4]: x[4] + u[4] - r[4] <= 1
 mccormick3[5]: x[5] + u[5] - r[5] <= 1
 mccormick3[6]: x[6] + u[6] - r[6] <= 1
 mccormick3[7]: x[7] + u[7] - r[7] <= 1
 mccormick3[8]: x[8] + u[8] - r[8] <= 1
 mccormick3[9]: x[9] + u[9] - r[9] <= 1
 mccormick3[10]: x[10] + u[10] - r[10] <= 1
 mccormick3[11]: x[11] + u[11] - r[11] <= 1
 mccormick3[12]: x[12] + u[12] - r[12] <= 1
 mccormick3[13]: x[13] + u[13] - r[13] <= 1
 mccormick3[14]: x[14] + u[14] - r[14] <= 1
 mccormick3[15]: x[15] + u[15] - r[15] <= 1
 mccormick3[16]: x[16] + u[16] - r[16] <= 1
 mccormick3[17]: x[17] + u[17] - r[17] <= 1
 mccormick3[18]: x[18] + u[18] - r[18] <= 1
 mccormick3[19]: x[19] + u[19] - r[19] <= 1
 mccormick3[20]: x[20] + u[20] - r[20] <= 1
 mccormick3[21]: x[21] + u[21] - r[21] <= 1
 mccormick3[22]: x[22] + u[22] - r[22] <= 1
 mccormick3[23]: x[23] + u[23] - r[23] <= 1
 mccormick3[24]: x[24] + u[24] - r[24] <= 1
 mccormick3[25]: x[25] + u[25] - r[25] <= 1
 mccormick3[26]: x[26] + u[26] - r[26] <= 1
 mccormick3[27]: x[27] + u[27] - r[27] <= 1
 mccormick3[28]: x[28] + u[28] - r[28] <= 1
 mccormick3[29]: x[29] + u[29] - r[29] <= 1
 mccormick3[30]: x[30] + u[30] - r[30] <= 1
 mccormick3[31]: x[31] + u[31] - r[31] <= 1
 mccormick3[32]: x[32] + u[32] - r[32] <= 1
 mccormick3[33]: x[33] + u[33] - r[33] <= 1
 mccormick3[34]: x[34] + u[34] - r[34] <= 1
 mccormick3[35]: x[35] + u[35] - r[35] <= 1
 mccormick3[36]: x[36] + u[36] - r[36] <= 1
 mccormick3[37]: x[37] + u[37] - r[37] <= 1
 mccormick3[38]: x[38] + u[38] - r[38] <= 1
 mccormick3[39]: x[39] + u[39] - r[39] <= 1
 mccormick3[40]: x[40] + u[40] - r[40] <= 1
 mccormick3[41]: x[41] + u[41] - r[41] <= 1
 mccormick3[42]: x[42] + u[42] - r[42] <= 1
 mccormick3[43]: x[43] + u[43] - r[43] <= 1
 mccormick3[44]: x[44] + u[44] - r[44] <= 1
 mccormick3[45]: x[45] + u[45] - r[45] <= 1
 mccormick3[46]: x[46] + u[46] - r[46] <= 1
 mccormick3[47]: x[47] + u[47] - r[47] <= 1
 mccormick3[48]: x[48] + u[48] - r[48] <= 1
 mccormick3[49]: x[49] + u[49] - r[49] <= 1
 mccormick3[50]: x[50] + u[50] - r[50] <= 1
 mccormick3[51]: x[51] + u[51] - r[51] <= 1
 mccormick3[52]: x[52] + u[52] - r[52] <= 1
 mccormick3[53]: x[53] + u[53] - r[53] <= 1
 mccormick3[54]: x[54] + u[54] - r[54] <= 1
 mccormick3[55]: x[55] + u[55] - r[55] <= 1
 mccormick3[56]: x[56] + u[56] - r[56] <= 1
 mccormick3[57]: x[57] + u[57] - r[57] <= 1
 mccormick3[58]: x[58] + u[58] - r[58] <= 1
 mccormick3[59]: x[59] + u[59] - r[59] <= 1
 mccormick3[60]: x[60] + u[60] - r[60] <= 1
 mccormick3[61]: x[61] + u[61] - r[61] <= 1
 mccormick3[62]: x[62] + u[62] - r[62] <= 1
 mccormick3[63]: x[63] + u[63] - r[63] <= 1
 mccormick3[64]: x[64] + u[64] - r[64] <= 1
 mccormick3[65]: x[65] + u[65] - r[65] <= 1
 mccormick3[66]: x[66] + u[66] - r[66] <= 1
 mccormick3[67]: x[67] + u[67] - r[67] <= 1
 mccormick3[68]: x[68] + u[68] - r[68] <= 1
 mccormick3[69]: x[69] + u[69] - r[69] <= 1
 mccormick3[70]: x[70] + u[70] - r[70] <= 1
 mccormick3[71]: x[71] + u[71] - r[71] <= 1
 mccormick3[72]: x[72] + u[72] - r[72] <= 1
 mccormick3[73]: x[73] + u[73] - r[73] <= 1
 mccormick3[74]: x[74] + u[74] - r[74] <= 1
 mccormick3[75]: x[75] + u[75] - r[75] <= 1
 mccormick3[76]: x[76] + u[76] - r[76] <= 1
 mccormick3[77]: x[77] + u[77] - r[77] <= 1
 mccormick3[78]: x[78] + u[78] - r[78] <= 1
 mccormick3[79]: x[79] + u[79] - r[79] <= 1
 mccormick3[80]: x[80] + u[80] - r[80] <= 1
 mccormick3[81]: x[81] + u[81] - r[81] <= 1
 mccormick3[82]: x[82] + u[82] - r[82] <= 1
 mccormick3[83]: x[83] + u[83] - r[83] <= 1
 mccormick3[84]: x[84] + u[84] - r[84] <= 1
 mccormick3[85]: x[85] + u[85] - r[85] <= 1
 mccormick3[86]: x[86] + u[86] - r[86] <= 1
 mccormick3[87]: x[87] + u[87] - r[87] <= 1
 mccormick3[88]: x[88] + u[88] - r[88] <= 1
 mccormick3[89]: x[89] + u[89] - r[89] <= 1
Bounds
Binaries
 x[0] x[1] x[2] x[3] x[4] x[5] x[6] x[7] x[8] x[9] x[10] x[11] x[12] x[13]
 x[14] x[15] x[16] x[17] x[18] x[19] x[20] x[21] x[22] x[23] x[24] x[25]
 x[26] x[27] x[28] x[29] x[30] x[31] x[32] x[33] x[34] x[35] x[36] x[37]
 x[38] x[39] x[40] x[41] x[42] x[43] x[44] x[45] x[46] x[47] x[48] x[49]
 x[50] x[51] x[52] x[53] x[54] x[55] x[56] x[57] x[58] x[59] x[60] x[61]
 x[62] x[63] x[64] x[65] x[66] x[67] x[68] x[69] x[70] x[71] x[72] x[73]
 x[74] x[75] x[76] x[77] x[78] x[79] x[80] x[81] x[82] x[83] x[84] x[85]
 x[86] x[87] x[88] x[89] u[0] u[1] u[2] u[3] u[4] u[5] u[6] u[7] u[8] u[9]
 u[10] u[11] u[12] u[13] u[14] u[15] u[16] u[17] u[18] u[19] u[20] u[21]
 u[22] u[23] u[24] u[25] u[26] u[27] u[28] u[29] u[30] u[31] u[32] u[33]
 u[34] u[35] u[36] u[37] u[38] u[39] u[40] u[41] u[42] u[43] u[44] u[45]
 u[46] u[47] u[48] u[49] u[50] u[51] u[52] u[53] u[54] u[55] u[56] u[57]
 u[58] u[59] u[60] u[61] u[62] u[63] u[64] u[65] u[66] u[67] u[68] u[69]
 u[70] u[71] u[72] u[73] u[74] u[75] u[76] u[77] u[78] u[79] u[80] u[81]
 u[82] u[83] u[84] u[85] u[86] u[87] u[88] u[89] r[0] r[1] r[2] r[3] r[4]
 r[5] r[6] r[7] r[8] r[9] r[10] r[11] r[12] r[13] r[14] r[15] r[16] r[17]
 r[18] r[19] r[20] r[21] r[22] r[23] r[24] r[25] r[26] r[27] r[28] r[29]
 r[30] r[31] r[32] r[33] r[34] r[35] r[36] r[37] r[38] r[39] r[40] r[41]
 r[42] r[43] r[44] r[45] r[46] r[47] r[48] r[49] r[50] r[51] r[52] r[53]
 r[54] r[55] r[56] r[57] r[58] r[59] r[60] r[61] r[62] r[63] r[64] r[65]
 r[66] r[67] r[68] r[69] r[70] r[71] r[72] r[73] r[74] r[75] r[76] r[77]
 r[78] r[79] r[80] r[81] r[82] r[83] r[84] r[85] r[86] r[87] r[88] r[89]
End
