instances/knapsack/discrete/knapsack_90_19.kp
15610
90
404

48 4.8 6
8 0.8 23
22 2.2 8
35 3.5 80
60 6.0 46
90 9.0 21
57 5.7 78
92 9.2 4
97 9.7 43
94 9.4 67
28 2.8 71
3 0.3 51
40 4.0 87
60 6.0 38
5 0.5 19
69 6.9 4
57 5.7 14
24 2.4 82
41 4.1 83
70 7.0 38
45 4.5 82
100 10.0 15
4 0.4 72
31 3.1 16
81 8.1 1
32 3.2 51
66 6.6 96
44 4.4 100
86 8.6 10
55 5.5 5
82 8.2 5
56 5.6 84
12 1.2 40
29 2.9 83
24 2.4 88
73 7.3 97
64 6.4 77
73 7.3 3
4 0.4 95
55 5.5 68
11 1.1 8
10 1.0 22
2 0.2 74
34 3.4 31
7 0.7 39
59 5.9 99
82 8.2 29
18 1.8 5
27 2.7 9
16 1.6 50
3 0.3 67
68 6.8 19
21 2.1 43
20 2.0 69
17 1.7 36
48 4.8 62
57 5.7 63
39 3.9 40
68 6.8 64
70 7.0 51
45 4.5 84
15 1.5 70
8 0.8 14
3 0.3 46
12 1.2 75
64 6.4 89
89 8.9 65
91 9.1 86
84 8.4 97
90 9.0 78
46 4.6 49
50 5.0 75
78 7.8 33
67 6.7 90
32 3.2 11
61 6.1 34
3 0.3 82
75 7.5 37
17 1.7 64
15 1.5 92
66 6.6 35
10 1.0 54
95 9.5 2
2 0.2 78
98 9.8 25
70 7.0 49
36 3.6 30
88 8.8 83
54 5.4 24
95 9.5 19

90500
411

[2.3595520024339445 0.29303096043976157 3.8340652137101516 3.0080429729738736 3.26216062221851 1.7590016615218804 2.910955481896031 0.41245843791595027 3.5912651605547277 1.2495350481865903 1.690412862328807 4.024090420749108 0.24233561697529113 1.435308707312539 1.7302260439781414 3.4704355395594955 4.435380296823206 1.9780838848479452 0.9503074841989159 3.5283930902778007 1.5209076769095538 2.186683466387743 1.1677873369312697 1.220642460488288 3.073427294275614 4.173742763821851 1.1592917541832555 3.2039537798140056 3.346612832863629 2.2244322110817207 2.9533305149011753 0.6156624197846395 4.563591135901175 1.9585417349719925 1.8830514667186984 1.514977233309452 2.9081615470207063 3.6000221066670592 1.1355073741358923 0.9538924893058977 4.316979862371989 1.8925706917845642 1.458929175047628 2.5895629924441304 0.46884541924090717 1.524984471807117 1.348051699457664 1.5130395781453243 1.3080221848916593 4.310162722416398 2.783958929904298 4.392744658268581 2.131527996269834 0.18504861850338447 0.3940216478036646 0.8243745576346047 0.6448196679686485 3.8438492646209417 0.2163280108348191 3.594479450183949 4.227352002530982 4.087020922430903 3.5026810945101006 1.9172583820437032 4.497205547121585 0.5981751296870369 3.0141583836925827 0.602351011802752 3.3147751953139957 3.2333334851000366 2.478829344777982 0.0004457628037421927 1.7310086743903879 0.060517100543524716 1.4344513224326703 2.1436474644129206 1.209602592528668 4.098154338568819 0.6331277696226125 0.5114399710220889 1.946419512013851 1.2561654440602972 1.3540116550256909 4.207103427833049 1.5038136560478994 2.8795456985802654 3.4276309434595014 3.051102566225143 2.926086218127133 0.034486416605700614]

[13 73 83 24 5 3 54 85 86 39 69 56 21 21 2 94 86 85 14 71 98 57 45 56 2 37 55 69 15 44 3 61 81 26 9 54 65 50 29 4 20 67 95 23 20 80 11 15 68 93 56 17 90 25 46 29 82 36 5 15 74 24 53 12 81 93 78 28 81 87 23 3 43 32 25 90 72 44 10 8 99 67 52 59 91 71 1 33 75 76]
